benchmarks_CP/INST_36x36/25/inst36x36_25_32.dzn
S=6;
start=[|
-1,	-1,	-1,	-1,	-1,	28,	32,	1,	36,	-1,	-1,	23,	-1,	-1,	-1,	8,	6,	-1,	-1,	-1,	-1,	-1,	-1,	7,	33,	13,	-1,	-1,	-1,	-1,	-1,	-1,	-1,	-1,	-1,	-1|
-1,	-1,	-1,	4,	1,	-1,	14,	29,	11,	-1,	-1,	-1,	-1,	-1,	20,	28,	-1,	32,	-1,	-1,	-1,	-1,	33,	-1,	-1,	-1,	-1,	-1,	34,	-1,	21,	-1,	-1,	-1,	-1,	-1|
6,	-1,	21,	-1,	-1,	30,	35,	-1,	-1,	2,	-1,	-1,	-1,	-1,	31,	34,	-1,	-1,	18,	4,	-1,	-1,	-1,	-1,	-1,	-1,	12,	-1,	-1,	9,	-1,	-1,	-1,	-1,	19,	-1|
-1,	11,	-1,	-1,	23,	-1,	-1,	17,	-1,	-1,	-1,	-1,	7,	3,	-1,	-1,	-1,	-1,	15,	-1,	9,	28,	-1,	20,	-1,	1,	6,	-1,	-1,	-1,	-1,	-1,	22,	32,	-1,	-1|
-1,	-1,	-1,	-1,	-1,	-1,	-1,	-1,	-1,	-1,	-1,	20,	21,	-1,	-1,	-1,	25,	24,	-1,	3,	-1,	-1,	-1,	-1,	10,	-1,	-1,	-1,	-1,	18,	-1,	-1,	1,	-1,	8,	-1|
-1,	-1,	-1,	-1,	-1,	-1,	22,	-1,	-1,	7,	-1,	-1,	-1,	17,	-1,	-1,	4,	27,	-1,	34,	-1,	-1,	1,	29,	-1,	-1,	-1,	-1,	-1,	-1,	36,	-1,	-1,	-1,	12,	-1|
-1,	-1,	-1,	-1,	-1,	-1,	-1,	-1,	-1,	-1,	-1,	32,	6,	-1,	-1,	-1,	-1,	-1,	-1,	-1,	20,	4,	2,	-1,	-1,	-1,	-1,	-1,	-1,	-1,	-1,	19,	-1,	7,	-1,	9|
-1,	-1,	-1,	3,	-1,	-1,	-1,	-1,	7,	20,	-1,	-1,	14,	-1,	-1,	-1,	-1,	-1,	-1,	-1,	-1,	-1,	-1,	-1,	-1,	6,	25,	-1,	-1,	31,	-1,	-1,	-1,	29,	-1,	-1|
-1,	-1,	-1,	1,	-1,	32,	-1,	4,	-1,	-1,	-1,	-1,	-1,	-1,	-1,	-1,	-1,	-1,	14,	-1,	-1,	-1,	-1,	-1,	20,	29,	-1,	-1,	-1,	-1,	26,	23,	-1,	6,	-1,	-1|
-1,	8,	-1,	11,	34,	-1,	-1,	-1,	-1,	21,	-1,	-1,	-1,	-1,	-1,	-1,	18,	-1,	-1,	-1,	-1,	27,	-1,	-1,	-1,	-1,	-1,	-1,	17,	-1,	-1,	-1,	-1,	35,	14,	36|
28,	-1,	-1,	-1,	12,	-1,	-1,	18,	23,	-1,	-1,	-1,	-1,	-1,	19,	-1,	-1,	-1,	-1,	7,	-1,	31,	-1,	-1,	-1,	-1,	-1,	-1,	-1,	-1,	-1,	-1,	-1,	-1,	-1,	15|
-1,	-1,	-1,	-1,	18,	-1,	-1,	-1,	-1,	-1,	-1,	-1,	26,	-1,	-1,	24,	-1,	-1,	-1,	19,	13,	-1,	-1,	-1,	-1,	-1,	27,	-1,	-1,	-1,	-1,	-1,	-1,	1,	-1,	-1|
7,	-1,	-1,	-1,	-1,	-1,	-1,	-1,	-1,	-1,	11,	-1,	-1,	21,	-1,	-1,	-1,	-1,	-1,	-1,	24,	15,	4,	-1,	-1,	-1,	-1,	19,	18,	-1,	-1,	-1,	-1,	25,	17,	13|
-1,	25,	-1,	-1,	-1,	-1,	-1,	23,	-1,	36,	14,	-1,	24,	-1,	-1,	-1,	-1,	-1,	-1,	1,	-1,	-1,	-1,	-1,	-1,	-1,	-1,	6,	-1,	-1,	-1,	20,	-1,	-1,	-1,	-1|
21,	-1,	6,	-1,	-1,	-1,	-1,	16,	-1,	-1,	-1,	-1,	-1,	-1,	-1,	-1,	-1,	-1,	-1,	-1,	-1,	-1,	-1,	-1,	17,	-1,	-1,	-1,	33,	14,	-1,	-1,	-1,	-1,	-1,	-1|
-1,	-1,	-1,	2,	-1,	-1,	-1,	-1,	-1,	-1,	-1,	10,	-1,	-1,	-1,	-1,	-1,	-1,	-1,	-1,	-1,	36,	-1,	32,	-1,	-1,	-1,	1,	15,	-1,	-1,	-1,	-1,	-1,	23,	-1|
-1,	24,	1,	-1,	-1,	-1,	20,	7,	-1,	-1,	-1,	29,	-1,	22,	-1,	-1,	-1,	-1,	-1,	-1,	-1,	-1,	31,	-1,	-1,	25,	8,	-1,	-1,	34,	-1,	15,	-1,	-1,	36,	-1|
-1,	-1,	29,	-1,	15,	-1,	-1,	-1,	-1,	-1,	-1,	-1,	-1,	-1,	-1,	1,	-1,	-1,	20,	-1,	-1,	-1,	-1,	-1,	-1,	-1,	-1,	26,	-1,	-1,	-1,	-1,	-1,	-1,	-1,	-1|
-1,	-1,	-1,	-1,	-1,	4,	-1,	-1,	10,	-1,	-1,	-1,	-1,	-1,	21,	23,	-1,	-1,	-1,	-1,	-1,	-1,	-1,	-1,	-1,	17,	-1,	-1,	-1,	33,	-1,	-1,	-1,	-1,	-1,	25|
-1,	-1,	28,	-1,	-1,	-1,	-1,	33,	-1,	-1,	-1,	8,	22,	-1,	34,	-1,	-1,	-1,	-1,	-1,	12,	18,	-1,	-1,	-1,	-1,	-1,	-1,	-1,	36,	-1,	32,	-1,	-1,	1,	-1|
-1,	-1,	32,	36,	-1,	-1,	34,	-1,	-1,	-1,	-1,	-1,	-1,	-1,	-1,	-1,	-1,	-1,	-1,	26,	-1,	-1,	20,	-1,	-1,	-1,	-1,	-1,	-1,	-1,	19,	-1,	-1,	-1,	5,	17|
-1,	-1,	23,	-1,	-1,	-1,	7,	-1,	-1,	-1,	-1,	-1,	-1,	-1,	-1,	26,	-1,	-1,	-1,	27,	-1,	-1,	-1,	-1,	-1,	-1,	18,	22,	-1,	16,	-1,	-1,	30,	-1,	-1,	-1|
-1,	-1,	-1,	-1,	-1,	8,	-1,	-1,	-1,	26,	-1,	-1,	-1,	-1,	-1,	-1,	-1,	-1,	-1,	-1,	-1,	-1,	-1,	-1,	29,	-1,	23,	-1,	-1,	32,	-1,	-1,	21,	-1,	-1,	-1|
-1,	33,	-1,	-1,	-1,	-1,	-1,	-1,	-1,	-1,	21,	-1,	-1,	-1,	5,	-1,	29,	8,	17,	-1,	-1,	-1,	13,	-1,	-1,	-1,	-1,	-1,	-1,	-1,	-1,	9,	-1,	-1,	-1,	16|
-1,	-1,	-1,	7,	-1,	-1,	-1,	-1,	35,	-1,	-1,	22,	-1,	-1,	-1,	-1,	15,	-1,	-1,	-1,	27,	5,	16,	-1,	24,	-1,	-1,	3,	-1,	20,	-1,	-1,	-1,	-1,	-1,	-1|
4,	-1,	10,	-1,	-1,	-1,	-1,	2,	-1,	16,	-1,	19,	-1,	-1,	8,	-1,	-1,	-1,	-1,	31,	22,	-1,	-1,	-1,	-1,	21,	-1,	9,	-1,	-1,	-1,	-1,	-1,	17,	-1,	-1|
-1,	-1,	-1,	-1,	-1,	-1,	-1,	-1,	-1,	-1,	-1,	-1,	-1,	-1,	-1,	21,	31,	-1,	2,	18,	28,	-1,	15,	-1,	-1,	-1,	33,	-1,	-1,	-1,	-1,	-1,	-1,	-1,	-1,	-1|
-1,	23,	-1,	-1,	-1,	20,	-1,	-1,	-1,	-1,	-1,	-1,	-1,	-1,	-1,	-1,	-1,	-1,	-1,	30,	-1,	-1,	11,	-1,	-1,	-1,	7,	13,	32,	-1,	-1,	-1,	29,	16,	-1,	-1|
-1,	12,	-1,	32,	11,	-1,	30,	-1,	13,	-1,	-1,	6,	-1,	33,	-1,	17,	-1,	5,	-1,	-1,	25,	-1,	14,	-1,	19,	-1,	26,	-1,	-1,	-1,	-1,	-1,	-1,	-1,	-1,	-1|
8,	-1,	-1,	22,	28,	15,	26,	-1,	18,	-1,	-1,	27,	-1,	1,	-1,	-1,	-1,	9,	-1,	-1,	-1,	13,	21,	12,	14,	-1,	-1,	-1,	-1,	6,	33,	-1,	-1,	-1,	4,	-1|
-1,	-1,	-1,	-1,	-1,	-1,	-1,	-1,	-1,	-1,	-1,	36,	3,	-1,	-1,	-1,	-1,	-1,	-1,	-1,	-1,	-1,	-1,	-1,	-1,	-1,	-1,	-1,	-1,	-1,	28,	-1,	-1,	-1,	-1,	-1|
-1,	1,	2,	16,	-1,	-1,	-1,	-1,	-1,	-1,	-1,	-1,	-1,	6,	-1,	14,	-1,	-1,	-1,	-1,	-1,	-1,	36,	-1,	-1,	-1,	-1,	-1,	28,	-1,	-1,	21,	-1,	-1,	-1,	-1|
-1,	18,	-1,	-1,	-1,	-1,	-1,	-1,	16,	-1,	3,	-1,	36,	5,	-1,	-1,	2,	29,	-1,	-1,	34,	-1,	-1,	26,	6,	-1,	-1,	-1,	-1,	-1,	-1,	-1,	20,	-1,	-1,	-1|
-1,	-1,	-1,	12,	-1,	-1,	-1,	-1,	-1,	27,	-1,	-1,	-1,	-1,	13,	-1,	-1,	-1,	-1,	-1,	-1,	-1,	-1,	-1,	-1,	-1,	-1,	-1,	29,	-1,	-1,	-1,	-1,	-1,	-1,	-1|
-1,	-1,	-1,	33,	-1,	36,	-1,	30,	-1,	28,	-1,	-1,	-1,	-1,	23,	-1,	-1,	-1,	-1,	-1,	-1,	-1,	17,	-1,	-1,	-1,	-1,	-1,	-1,	8,	-1,	-1,	-1,	14,	-1,	-1|
-1,	-1,	-1,	-1,	-1,	22,	-1,	-1,	8,	-1,	18,	-1,	33,	-1,	-1,	-1,	1,	-1,	32,	-1,	4,	-1,	-1,	-1,	16,	-1,	-1,	-1,	27,	3,	-1,	-1,	36,	-1,	-1,	19|];
